Minimize
 obj: - y(1) - 3 y(2) - y(3) + 3 y(5) + 5 y(6) - 7 y(7) + 5 y(16) - 10 y(18)
      - 10 y(19) - 8 y(21) + 9 y(22) + 8 y(23) + 10 y(24) - y(25) - 6 y(26)
      - 7 y(30) + 3 y(33) + 3 y(34) + 134 x(0) + 2 y(11) + 10 y(12) + 2 y(13)
      - 2 y(37) - 62 x(1) - 2 y(0) + 2 y(9) - 6 y(10) + 5 y(20) - 9 y(29)
      - 7 y(38) - 26 x(2) - 8 y(27) - 8 y(31) + 10 y(35) - 4 y(36) - 126 x(3)
      + 8 y(14) - 8 y(15) + 2 y(28) + 3 y(32) + 8 y(39) + 45 x(4) + 10 y(17)
      - 96 x(5) - 33 x(6) - 197 x(7) + 57 x(8) + 34 x(9) - 4 y(4) + 55 x(10)
      + 38 x(11) - 78 x(12) - 163 x(13) - 78 x(14) - 84 x(15) - 64 x(16)
      - 89 x(17) + 95 x(18) + 141 x(19) + 103 x(20) + 33 x(21) - 41 x(22)
      - 92 x(23) + 191 x(24) - 190 x(25) - 33 x(26) + 150 x(27) + 12 x(28)
      - 81 x(29) + 36 x(30) - 127 x(31) + 58 x(32) + 137 x(33) - 52 x(34)
      - 170 x(35) - 159 x(36) + 115 x(37) - 167 x(38) + 25 x(39) 
Subject To
 c1:  19 y(1) + 5 y(2) + 18 y(3) + 2 y(5) + 2 y(6) + 13 y(7) + 4 y(8)
      + 16 y(16) + 13 y(18) + 4 y(19) + 15 y(21) + 15 y(22) + 4 y(23)
      + 12 y(24) + 2 y(25) + 18 y(26) + 20 y(30) + 4 y(33) + 8 y(34) + 11 x(0)
      <= 60
 c2:  6 y(3) + 18 y(18) + 14 y(21) + 6 y(22) + 16 y(24) + 10 y(25) + 8 y(26)
      + 12 y(34) + 9 y(11) + 7 y(12) + 20 y(13) + 16 y(37) + 15 x(1) <= 70
 c3:  2 y(1) + 3 y(2) + 3 y(5) + 2 y(8) + 12 y(16) + 10 y(19) + 7 y(21)
      + 3 y(22) + 12 y(24) + 20 y(30) + 17 y(12) + 2 y(13) + 3 y(0) + 8 y(9)
      + 11 y(10) + 17 y(20) + 14 y(29) + 12 y(38) - x(2) <= 69
 c4:  16 y(1) + 3 y(6) - y(8) + 17 y(18) + 8 y(19) + 4 y(21) + 16 y(23)
      + 9 y(24) + 15 y(26) + 20 y(30) + 8 y(33) + 11 y(34) + 18 y(13) + 5 y(0)
      + 11 y(9) + 10 y(29) + 17 y(38) + 10 y(27) + 5 y(31) + 17 y(35)
      + 16 y(36) + 12 x(3) <= 71
 c5:  17 y(1) + 16 y(2) + 7 y(5) + 10 y(16) + 3 y(22) + 10 y(30) + 7 y(12)
      + 11 y(13) + 18 y(10) + 7 y(27) + 3 y(31) + 15 y(14) + 14 y(15) + 4 y(28)
      + 11 y(32) + y(39) + 19 x(4) <= 60
 c6:  9 y(1) + y(5) + 10 y(8) + 16 y(18) + 16 y(19) + 12 y(22) + 15 y(23)
      + 4 y(25) + 17 y(26) + 11 y(30) + 16 y(33) + y(37) + 15 y(0) + 17 y(38)
      + 15 y(15) + 13 y(17) + 18 x(5) <= 65
 c7:  9 y(2) - y(3) + 8 y(5) + 18 y(18) + 17 y(19) + 20 y(23) + y(24) + 5 y(25)
      + 13 y(26) + 14 y(34) + 17 y(11) + 2 y(13) + 3 y(9) + 18 y(20) + 7 y(27)
      + 6 y(35) + 12 y(14) + 17 y(15) + 4 y(39) + 19 x(6) <= 72
 c8:  4 y(21) + 7 y(25) + 19 y(26) + 8 y(33) + 17 y(34) + 14 y(11) + 3 y(12)
      + 19 y(0) + 19 y(9) + 17 y(10) + 8 y(38) + 3 y(31) + 12 y(35) + 14 y(28)
      + 8 y(39) + 6 y(17) + 2 x(7) <= 93
 c9:  8 y(1) + 15 y(2) + 17 y(3) + 8 y(7) + 4 y(8) + 13 y(16) - y(19)
      + 16 y(21) + 8 y(33) + 14 y(34) + 9 y(11) + 12 y(12) + 2 y(13) + 11 y(0)
      + 2 y(10) + 17 y(20) + 10 y(29) + 18 y(31) - y(36) - y(28) + 3 y(39)
      + 2 y(17) + 17 x(8) <= 51
 c10: 19 y(2) + 19 y(3) + 6 y(16) + 19 y(18) + 16 y(19) + 19 y(23) + 17 y(24)
      + 15 y(25) + 13 y(30) + 9 y(33) + y(34) + 20 y(11) + 13 y(37) + 4 y(9)
      + 17 y(10) + 13 y(29) + 17 y(27) + 12 y(36) + 19 y(14) + 11 y(15)
      + 17 x(9) <= 88
 c11: 18 y(2) + y(6) + 15 y(18) + 18 y(19) + 4 y(22) + 11 y(25) + 4 y(26)
      + 4 y(33) + 5 y(34) + 15 y(11) + 9 y(12) + 19 y(13) - y(9) + 10 y(10)
      + 20 y(38) - y(31) + 4 y(35) + 11 y(36) + 4 y(15) + 11 y(28) + 9 y(32)
      + 19 y(4) + 19 x(10) <= 72
 c12: 3 y(1) + 7 y(2) + y(3) + 5 y(5) + 5 y(7) + 3 y(21) + 4 y(22) + 4 y(23)
      + 5 y(24) + 19 y(33) + 12 y(12) + 2 y(13) + 6 y(37) + 11 y(10) + 15 y(29)
      + y(39) + 9 y(17) + 12 x(11) <= 70
 c13: 14 y(1) + 7 y(2) + 17 y(3) + 2 y(5) + 7 y(8) + 13 y(16) + 16 y(18)
      + 20 y(19) + 6 y(22) + 9 y(24) + 14 y(26) + 8 y(33) + 12 y(11) + 20 y(13)
      + 20 y(37) + 4 y(0) + 3 y(20) + 3 y(29) + 14 y(27) + 7 y(35) + 8 y(28)
      + 4 y(4) + 10 x(12) <= 99
 c14: 7 y(1) + 16 y(8) + 13 y(18) + y(19) + 15 y(22) + 18 y(23) + 17 y(24)
      + 20 y(25) + 9 y(34) + 5 y(11) + 2 y(0) + 9 y(9) - y(20) + 17 y(27)
      + 8 y(28) + 20 y(32) + 11 y(17) + 5 y(4) + x(13) <= 56
 c15: 17 y(2) + 14 y(5) + 10 y(7) + 3 y(18) - y(22) + 11 y(23) + 8 y(25)
      + 14 y(33) + 20 y(34) + 2 y(12) + 12 y(13) + 8 y(37) + 3 y(9) + 15 y(29)
      + 6 y(35) + 19 y(36) + 4 y(32) + 10 y(39) + 7 y(17) + 11 x(14) <= 53
 c16: 17 y(1) + 4 y(6) - y(16) + 4 y(21) + 15 y(22) + 11 y(23) + 11 y(26)
      - y(30) + 17 y(33) + 15 y(34) + 17 y(12) + 17 y(0) + 19 y(9) + 19 y(38)
      + 4 y(31) + 7 y(35) + 10 y(15) + 11 y(32) + 10 y(17) + 17 x(15) <= 92
 c17: 8 y(6) + 20 y(8) + 2 y(23) + 4 y(24) + 19 y(25) + 10 y(30) + 3 y(12)
      + 18 y(13) + 19 y(37) + 20 y(29) + 3 y(27) + y(31) + 19 y(36) + 5 y(14)
      + 7 y(15) + 3 y(39) + 5 y(4) + 17 x(16) <= 68
 c18: 5 y(2) + 7 y(3) + 16 y(8) + 3 y(16) + 6 y(21) + 7 y(24) + 16 y(34)
      + 11 y(11) + 10 y(13) + 20 y(9) + 17 y(10) + 16 y(20) + 8 y(29)
      + 13 y(38) + 5 y(27) + 14 y(31) + 20 y(35) + 20 y(28) + y(32) + 5 y(39)
      + 13 y(17) + 4 x(17) <= 76
 c19: 17 y(1) + 6 y(2) + 5 y(3) + 4 y(7) + 20 y(16) + 17 y(18) - y(19)
      + 20 y(21) + 4 y(22) + 7 y(26) + 13 y(30) + y(33) + 11 y(11) + 18 y(13)
      + 20 y(37) + 8 y(0) + 12 y(9) - y(10) + 3 y(29) - y(38) + 20 y(27)
      + 12 y(36) + 12 y(14) + 17 y(28) + y(17) + 6 x(18) <= 55
 c20: 8 y(1) + 5 y(2) + 20 y(3) + 12 y(5) + 17 y(18) + 19 y(22) + 17 y(23)
      + 5 y(30) + 5 y(33) + 4 y(34) + 11 y(12) + 3 y(13) + 20 y(0) + 9 y(31)
      + 8 y(35) + 18 y(32) + 15 y(39) + 16 y(17) + 9 y(4) + 2 x(19) <= 50
 c21: 18 y(1) + y(3) + 10 y(6) + 18 y(7) + 6 y(8) + y(16) + 9 y(18) + 7 y(21)
      + 16 y(22) + 12 y(24) + 19 y(25) + 11 y(26) + 10 y(33) + y(11) + 9 y(12)
      + 20 y(13) - y(37) + 2 y(9) + 8 y(10) + 8 y(29) + 15 y(38) + 5 y(27)
      + 7 y(36) + 2 y(14) + y(32) + 18 y(4) + 18 x(20) <= 92
 c22: 8 y(1) + 14 y(7) + 18 y(18) + 12 y(22) + 10 y(30) + 4 y(12) + 16 y(10)
      + 13 y(38) + 6 y(17) + 19 y(4) + 11 x(21) <= 61
 c23: 16 y(1) + 7 y(8) + 10 y(18) + y(19) + 18 y(24) + 17 y(25) + 4 y(37)
      + 17 y(29) - y(38) + 6 y(27) + 17 y(31) + 9 y(28) + 5 y(32) + 18 y(39)
      + 20 y(4) + 4 x(22) <= 63
 c24: 4 y(8) + 4 y(16) + 7 y(21) + 6 y(22) + 7 y(23) + 12 y(24) + 7 y(25)
      + 15 y(26) + 4 y(33) + 6 y(11) + 16 y(13) + 8 y(0) + 19 y(9) + 20 y(31)
      + 5 y(35) + 12 y(36) + y(14) + 18 y(39) + 17 y(4) + 4 x(23) <= 58
 c25: 17 y(1) + 11 y(2) + 7 y(3) + 3 y(6) + 4 y(16) + 19 y(24) + 17 y(26)
      + 14 y(30) + 20 y(34) + 4 y(12) + 19 y(13) + 12 y(37) + 14 y(10)
      + 8 y(29) + 5 y(31) + 7 y(28) + 7 y(17) + 18 y(4) + 10 x(24) <= 98
 c26: 9 y(1) + 4 y(3) + 7 y(8) + 18 y(16) + 17 y(18) + 10 y(19) + 10 y(21)
      + 18 y(23) + 19 y(33) + 16 y(34) + 17 y(9) + 17 y(38) - y(35) + 10 y(14)
      + 18 y(28) + 15 y(32) + 10 y(39) + 11 y(17) - y(4) + 10 x(25) <= 67
 c27: 2 y(5) + 6 y(19) + 8 y(21) + 17 y(23) + 9 y(26) + 6 y(30) + 3 y(37)
      + 10 y(20) + 10 y(29) + 11 y(38) + 16 y(27) + 13 y(31) + 20 y(35)
      + 9 y(36) + 9 y(32) + 17 y(4) + x(26) <= 75
 c28: 20 y(1) - y(5) - y(7) + 15 y(19) - y(22) + 9 y(23) + 13 y(25) + 15 y(26)
      + 12 y(33) + 8 y(11) + 7 y(13) + 19 y(0) + 14 y(9) + 8 y(20) + 2 y(38)
      + 13 y(31) + 13 y(15) + 2 y(28) + 6 y(32) + 19 y(4) + 6 x(27) <= 72
 c29: 3 y(3) - y(6) + 2 y(7) + 5 y(16) + 6 y(22) + 12 y(23) + 18 y(24)
      + 20 y(26) + 18 y(11) + 16 y(9) + 18 y(29) + 18 y(36) + y(15) + 4 y(28)
      + 17 y(32) + y(39) + 20 y(17) + 3 x(28) <= 64
 c30: - y(3) + 6 y(5) + 3 y(7) + 6 y(16) + 19 y(19) + 12 y(24) + 6 y(34)
      + 5 y(11) + 2 y(0) + 13 y(9) + 3 y(29) + 3 y(38) + 6 y(31) + 16 y(35)
      + 12 y(28) + 14 y(32) + 18 y(39) + 17 y(4) + 20 x(29) <= 76
 c31: 17 y(1) + 14 y(6) + 19 y(7) + 14 y(8) + 10 y(16) + 2 y(19) + 6 y(22)
      + 5 y(25) + y(30) + 12 y(11) + 14 y(37) + 5 y(10) + 4 y(29) + 16 y(31)
      + 13 y(14) + 11 y(28) + 11 y(32) + 20 x(30) <= 67
 c32: 17 y(1) + 19 y(5) + 5 y(16) + 12 y(18) + 4 y(21) + 6 y(23) + 5 y(25)
      + 18 y(11) + 8 y(13) + 6 y(20) + 13 y(29) + 12 y(27) + 10 y(31) - y(35)
      + 15 y(36) + 13 y(4) + 15 x(31) <= 100
 c33: 3 y(2) + 18 y(3) + y(5) + 9 y(8) + 16 y(18) + 9 y(19) + 17 y(22)
      + 17 y(23) + 18 y(24) + 2 y(26) + 4 y(33) + 15 y(37) + 10 y(0) + 14 y(9)
      + 3 y(10) + 16 y(29) + 11 y(38) + 14 y(36) + 20 y(14) + 16 y(15)
      + 3 y(32) + 11 y(17) + y(4) + 14 x(32) <= 70
 c34: 7 y(2) + 20 y(6) + 19 y(7) + 18 y(16) + 15 y(19) + 13 y(24) + y(25)
      + 10 y(26) + y(30) + 10 y(11) + 10 y(37) + 2 y(29) + 7 y(38) + 10 y(27)
      + 19 y(15) + 11 y(28) + 20 y(39) + 19 x(33) <= 86
 c35: 2 y(1) + 17 y(3) + 6 y(6) + 3 y(8) + 13 y(16) + 7 y(18) + 9 y(22)
      + 11 y(24) + 17 y(25) + 6 y(26) + 5 y(34) + 17 y(11) + y(12) + 3 y(37)
      + 20 y(10) + 16 y(31) - y(39) + 4 x(34) <= 70
 c36: y(1) + 16 y(2) + 6 y(3) + 19 y(6) + 10 y(19) + 16 y(22) + 9 y(25)
      + 2 y(26) + 19 y(33) + 8 y(34) + 4 y(11) + 12 y(13) - y(0) + 20 y(10)
      + 15 y(29) - y(38) + 5 y(27) - y(31) + 8 y(14) + 18 y(32) + 3 y(39)
      + 16 y(17) + 11 x(35) <= 55
 c37: 6 y(5) + 6 y(6) + 9 y(19) + 3 y(21) + 2 y(25) + 8 y(26) + 2 y(30)
      + 17 y(11) - y(13) + 4 y(9) + 8 y(10) + 12 y(20) - y(29) + y(38)
      + 15 y(35) + 12 y(15) + 20 y(32) + 13 y(39) + 8 y(17) + 13 y(4)
      + 16 x(36) <= 75
 c38: 4 y(16) + y(18) + 10 y(22) + 4 y(24) + 4 y(25) + 16 y(30) + 3 y(33)
      + 12 y(34) + 3 y(13) + 19 y(0) + 6 y(20) + 19 y(38) + 6 y(31) + 17 y(35)
      + 2 y(36) + 5 y(14) - y(28) + 6 y(39) + 16 y(17) + 2 x(37) <= 92
 c39: 15 y(2) + 7 y(3) + 15 y(5) + 18 y(6) + 7 y(7) + 19 y(8) + 17 y(16)
      + 13 y(22) + 4 y(23) + 6 y(25) + 3 y(30) + 11 y(33) + 8 y(34) + 5 y(11)
      + 4 y(12) + 18 y(37) - y(10) + 10 y(29) + 20 y(38) + 12 y(14) + 3 y(15)
      + 14 y(39) + 4 y(17) + 18 y(4) + 14 x(38) <= 98
 c40: 13 y(2) + 16 y(3) + 12 y(8) + 19 y(21) + 9 y(22) + 15 y(23) + 10 y(24)
      + 10 y(13) + 14 y(0) + 16 y(9) + 20 y(20) + 5 y(29) + 9 y(27) - y(35)
      + y(28) + 12 x(39) <= 50
 c41: 6 y(2) + 9 y(6) + 13 y(16) + 10 y(21) + 8 y(22) + 17 y(23) + 12 y(25)
      + 10 y(30) + 6 y(12) + 13 y(0) + 14 y(9) + 6 y(20) + 17 y(15) + 9 y(28)
      + 20 y(39) + 12 y(17) <= 54
 c42: 18 y(1) + 6 y(2) - y(5) + 8 y(6) + 7 y(7) + 16 y(8) + 18 y(18) + 10 y(26)
      + 5 y(30) + 8 y(37) + 18 y(0) + 4 y(20) + 8 y(38) + 20 y(31) + 10 y(35)
      + y(14) <= 94
 c43: 19 y(1) + y(6) + 2 y(16) + y(19) - y(21) + 15 y(23) + 20 y(25) + 10 y(30)
      - y(33) + 18 y(34) + 6 y(12) - y(0) + 12 y(10) + 11 y(20) + 14 y(29)
      + 14 y(38) + 18 y(27) - y(31) + 17 y(36) + 19 y(15) + 16 y(28) <= 70
 c44: 12 y(3) + 17 y(5) + 13 y(8) + 6 y(16) + 7 y(18) + 20 y(19) + 6 y(22)
      + 10 y(25) + 5 y(30) + 14 y(33) + 4 y(11) + 20 y(13) + 9 y(0) + 7 y(29)
      + 19 y(14) - y(15) + 15 y(39) + 9 y(4) <= 52
 c45: 10 y(3) + 17 y(6) + 11 y(7) + 8 y(18) + 11 y(19) + 6 y(24) + 20 y(25)
      + 18 y(26) + 11 y(30) + 3 y(11) + 14 y(12) + 9 y(37) + 5 y(10) + 14 y(20)
      + 10 y(36) + 5 y(15) + 17 y(28) + 7 y(32) + 12 y(4) <= 75
 c46: 19 y(1) + 7 y(5) + 2 y(7) + 3 y(16) + 15 y(18) + 20 y(21) + y(22)
      + 18 y(26) + 19 y(34) + 14 y(0) + 9 y(9) + 4 y(20) + 17 y(29) + 5 y(38)
      + 16 y(27) - y(15) + 3 y(39) + 14 y(17) <= 99
 c47: 15 y(2) + 20 y(3) + 3 y(6) + 3 y(18) + 17 y(23) + 11 y(25) + 4 y(26)
      + 20 y(30) + 8 y(11) + 13 y(13) + 4 y(37) + 7 y(9) + 11 y(20) + 18 y(35)
      - y(15) + 8 y(39) + 16 y(17) <= 68
 c48: 14 y(2) + 4 y(16) + 8 y(18) + 15 y(21) + 5 y(22) + y(23) + 13 y(30)
      + 15 y(34) + 11 y(0) - y(9) - y(10) + 6 y(38) + 17 y(27) - y(15)
      + 19 y(4) <= 67
 c49: 11 y(1) + 19 y(6) + 20 y(7) + 15 y(18) + 14 y(23) + 10 y(33) + 6 y(34)
      + 19 y(11) + y(37) + 14 y(0) + 19 y(9) + 13 y(27) + 11 y(31) + 7 y(14)
      <= 74
 c50: 12 y(6) + 3 y(7) + 17 y(18) + 15 y(19) + 8 y(21) + 6 y(22) + 19 y(23)
      + 8 y(30) + 15 y(0) + y(27) + y(36) + 9 y(15) + 5 y(32) - y(4) <= 73
 c51: y(2) + 12 y(3) + 13 y(6) + y(7) + 10 y(8) + 5 y(19) + 9 y(22) + 2 y(24)
      + 13 y(25) + 10 y(30) + 14 y(34) + 16 y(9) + 3 y(29) + 7 y(38) + 11 y(31)
      + 13 y(35) + 5 y(36) + 14 y(28) + 8 y(32) + 7 y(39) <= 67
 c52: 8 y(2) + 8 y(5) - y(7) + 9 y(18) + 12 y(19) + 8 y(21) + 15 y(22)
      + 2 y(25) + 20 y(30) + 5 y(34) - y(11) + 10 y(12) - y(37) + 3 y(9)
      + 8 y(10) + 2 y(20) + 3 y(38) - y(27) + 2 y(35) + 9 y(36) + 8 y(15)
      + 7 y(28) + 19 y(17) <= 90
 c53: 7 y(1) + 11 y(2) + 15 y(5) + 11 y(7) + y(8) + 11 y(18) + 16 y(19)
      + 3 y(22) + 18 y(23) + 15 y(25) + 5 y(26) + 20 y(30) + 6 y(34) + y(11)
      + y(37) - y(9) + 13 y(38) - y(31) + 14 y(39) + 3 y(4) <= 58
 c54: 12 y(5) + 19 y(7) + 20 y(8) + 9 y(18) + 13 y(21) + 12 y(23) + 8 y(24)
      + 12 y(25) + 18 y(30) + 4 y(33) + 17 y(34) + 10 y(37) + 12 y(10)
      + 20 y(20) + 15 y(38) + 18 y(27) + 3 y(31) + 11 y(35) + 10 y(36)
      + 17 y(14) + y(28) + 12 y(32) + 4 y(39) + 18 y(17) <= 54
 c55: 13 y(3) + 12 y(7) + 11 y(18) + 13 y(19) + 14 y(22) + 12 y(24) + 4 y(26)
      + 11 y(30) + y(33) + 16 y(11) + 5 y(13) + 11 y(37) + 14 y(20) + 13 y(27)
      + 4 y(31) - y(35) + 14 y(36) + y(32) + 7 y(39) + 4 y(17) <= 72
 c56: 10 y(1) - y(5) + 7 y(6) + 3 y(7) + 7 y(8) + 7 y(18) + 20 y(21) + 14 y(25)
      + 19 y(26) + 14 y(11) + 4 y(12) + 13 y(9) + 3 y(29) + 9 y(27) + 6 y(31)
      + 7 y(35) + 18 y(36) + 16 y(14) + 18 y(28) + 12 y(32) + 7 y(39) <= 80
 c57: 9 y(2) + 5 y(3) + 5 y(5) + 20 y(6) + 2 y(7) - y(21) + 6 y(23) + 2 y(25)
      + 18 y(26) + 18 y(12) + 5 y(0) + 2 y(20) - y(29) + 18 y(38) + y(27)
      + 16 y(35) + 3 y(36) + 5 y(15) - y(32) + 13 y(17) <= 71
 c58: 19 y(1) + 6 y(2) + 9 y(5) + 5 y(19) + 12 y(25) + 12 y(26) - y(30)
      + 19 y(34) + 20 y(12) + 14 y(9) + 15 y(10) + 12 y(20) + 4 y(38) + 5 y(31)
      + 15 y(15) <= 71
 c59: 9 y(5) + 4 y(6) + 3 y(7) + 15 y(16) + 2 y(21) + 16 y(23) + 14 y(24)
      + 6 y(30) + 14 y(33) + 16 y(13) + 10 y(37) + 3 y(9) + y(29) + 16 y(38)
      + 15 y(27) + 7 y(31) + 6 y(35) + 8 y(32) - y(17) <= 51
 c60: 8 y(1) + 19 y(2) + 10 y(5) + 10 y(16) + 3 y(19) - y(21) + 6 y(23)
      + 3 y(30) + 12 y(11) + 6 y(12) + 18 y(29) + 15 y(35) + 18 y(36) + 3 y(15)
      + 19 y(28) - y(32) + 11 y(39) + 13 y(17) <= 86
 c61: 15 y(1) + 11 y(3) + 14 y(8) + 3 y(18) + 14 y(19) + y(21) + 13 y(24)
      + 5 y(30) + 13 y(33) + 8 y(34) + 16 y(11) + 9 y(9) + 5 y(20) + 12 y(38)
      + 13 y(27) + 3 y(32) + 2 y(39) <= 97
 c62: 8 y(2) - y(6) + 8 y(7) + 16 y(16) + 2 y(25) + 5 y(26) + 3 y(33)
      + 20 y(34) - y(11) + 17 y(13) + 16 y(37) + 8 y(9) + 12 y(29) + 5 y(35)
      + 18 y(17) <= 68
 c63: 20 y(2) + 11 y(5) + 4 y(7) + 10 y(16) + 7 y(18) + 12 y(19) + 4 y(21)
      + 3 y(22) + y(23) + 12 y(24) + 16 y(26) + 15 y(13) + 17 y(0) + 10 y(27)
      + 13 y(15) + 11 y(32) + 18 y(39) + 20 y(4) <= 59
 c64: 2 y(1) + 19 y(5) + 8 y(7) + 9 y(16) + 18 y(19) - y(23) + 11 y(26)
      + 9 y(30) + 18 y(33) + 7 y(34) + 10 y(12) + 12 y(13) + 13 y(37)
      + 16 y(20) + 6 y(29) + 7 y(38) + 20 y(28) <= 92
 c65: 5 y(1) + 6 y(2) + y(5) + y(6) + 13 y(7) + 10 y(16) + 14 y(22) + 17 y(25)
      + 11 y(26) + 20 y(30) - y(11) + 18 y(12) + 8 y(9) + 18 y(27) + 20 y(31)
      + 16 y(14) + 17 y(32) <= 78
 c66: 13 y(1) + 5 y(2) + 6 y(6) + 3 y(16) + 17 y(19) + 14 y(22) + 9 y(26)
      + 9 y(11) + 16 y(12) + 4 y(35) + 14 y(36) + 12 y(14) + 3 y(15) + 19 y(32)
      + 15 y(17) + 14 y(4) <= 79
 c67: 4 y(6) + 17 y(19) + 17 y(21) + 7 y(22) - y(25) + y(26) + 4 y(33)
      + 17 y(11) - y(12) + 9 y(13) + 12 y(10) + 14 y(27) + 20 y(31) + 8 y(35)
      + 12 y(36) + 12 y(15) + 14 y(28) <= 97
 c68: 14 y(1) - y(3) + 3 y(5) + 19 y(6) + y(7) + 4 y(16) + 18 y(18) + 18 y(19)
      + 14 y(23) + 10 y(25) + 5 y(26) + 13 y(11) + 9 y(12) - y(13) + 20 y(0)
      + 3 y(10) + 9 y(27) + 12 y(35) + 20 y(17) <= 53
 c69: 10 y(1) + 3 y(6) + 8 y(8) + 7 y(16) + 6 y(19) + 5 y(21) + 16 y(22)
      + 5 y(24) + 18 y(26) + 8 y(34) + 19 y(38) + 11 y(27) + 16 y(31) + 8 y(35)
      + 2 y(36) + 9 y(39) + 2 y(17) + 11 y(4) <= 96
 c70: 11 y(1) + 8 y(2) + 12 y(7) + y(8) + 18 y(16) + 4 y(19) + 18 y(23)
      + 9 y(24) + 7 y(30) + 11 y(34) + 20 y(12) + 7 y(10) + 6 y(20) + 15 y(29)
      + 20 y(27) + 17 y(31) - y(36) + 15 y(15) + 4 y(28) + 13 y(32) + 5 y(4)
      <= 68
 c71: - y(6) + 18 y(19) + 4 y(21) + 12 y(24) + 11 y(11) + 16 y(9) + 18 y(20)
      - y(38) + 16 y(35) + 16 y(36) + 16 y(15) + 16 y(28) + 8 y(32) + 13 y(17)
      + 14 y(4) <= 78
 c72: 7 y(3) + 7 y(6) + y(7) + 16 y(19) + 6 y(21) + 6 y(23) + y(30) + 8 y(12)
      + 14 y(13) + 12 y(0) + 11 y(35) + 13 y(36) + 6 y(14) + 11 y(15) + 3 y(39)
      <= 74
 c73: 11 y(5) + 10 y(8) + 13 y(21) + 16 y(22) + 9 y(34) + 17 y(11) + 16 y(37)
      + y(0) + y(38) + 19 y(27) + 20 y(35) + 14 y(14) + 14 y(32) + y(39)
      + 8 y(17) + 3 y(4) <= 86
 c74: 14 y(1) + 11 y(2) + 7 y(3) + y(6) + 4 y(8) + 13 y(19) + 2 y(21) + 5 y(23)
      + 9 y(24) + 6 y(25) + 2 y(30) + 9 y(34) + 14 y(11) + 19 y(13) + 3 y(10)
      + 10 y(20) + 7 y(27) + 15 y(31) + 11 y(36) + 9 y(14) + 7 y(15) + 8 y(32)
      + 8 y(17) <= 99
 c75: 7 y(2) + 15 y(5) + 15 y(6) - y(7) + 4 y(16) + 8 y(19) + 16 y(23)
      + 15 y(24) + 8 y(25) + 2 y(26) + 13 y(30) + 6 y(12) + 6 y(13) + 4 y(0)
      + y(9) + 4 y(29) + 8 y(27) + 3 y(14) + 3 y(32) + 16 y(17) + 3 y(4) <= 76
 c76: y(2) + 17 y(5) + 2 y(6) + y(7) + 2 y(8) + 2 y(25) + y(30) + y(12)
      + 12 y(37) + 4 y(10) + 20 y(27) + 9 y(15) + 8 y(39) - y(17) + 4 y(4)
      <= 60
 c77: 3 y(1) + 7 y(2) + 14 y(3) + 9 y(5) + 3 y(6) + 7 y(7) + 12 y(16) + 2 y(18)
      + 20 y(24) + 18 y(26) + 5 y(33) + y(34) + 19 y(12) + 10 y(37) + 20 y(0)
      + 5 y(9) + 16 y(20) + 4 y(29) + 11 y(38) + 10 y(27) + 17 y(31) + 3 y(36)
      + y(28) + y(32) + 12 y(39) + 20 y(17) + 15 y(4) <= 97
 c78: 19 y(1) + 4 y(2) - y(3) + 12 y(7) + 5 y(18) + 18 y(22) + 19 y(25)
      + 18 y(26) + 5 y(33) + 17 y(34) + 12 y(11) + 19 y(12) + 13 y(13)
      + 20 y(0) + 17 y(9) + 18 y(10) + 8 y(27) + 20 y(35) - y(15) + 13 y(28)
      + 13 y(32) + 13 y(39) + 14 y(17) + 19 y(4) <= 94
 c79: 4 y(1) + 19 y(3) + 4 y(6) - y(7) + 2 y(8) + 18 y(19) + 14 y(24)
      + 11 y(30) + 4 y(33) + 4 y(13) + 11 y(9) + 6 y(31) + 3 y(14) + 16 y(32)
      + 9 y(4) <= 78
 c80: x(0) + x(1) + x(2) + x(3) + x(4) + x(5) + x(6) + x(7) + x(8) + x(9)
      + x(10) + x(11) + x(12) + x(13) + x(14) + x(15) + x(16) + x(17) + x(18)
      + x(19) + x(20) + x(21) + x(22) + x(23) + x(24) + x(25) + x(26) + x(27)
      + x(28) + x(29) + x(30) + x(31) + x(32) + x(33) + x(34) + x(35) + x(36)
      + x(37) + x(38) + x(39) <= 13
 c81: 2 y(2) - 10 y(3) + y(5) - 5 y(6) + 9 y(7) + y(8) + y(16) + 7 y(18)
      - 7 y(19) - 10 y(21) - 3 y(22) + 6 y(24) - 10 y(25) - 9 y(30) + 6 y(33)
      + 2 y(34) - 51 x(0) - 2 y(11) + y(12) - 10 y(13) + 10 y(37) + 16 x(1)
      - 10 y(0) - 2 y(9) - 9 y(10) + 7 y(20) + 4 y(29) - 2 y(38) - 137 x(2)
      - 7 y(27) + 2 y(31) - y(35) - 3 y(36) - 2 x(3) - 4 y(14) + 2 y(15)
      - y(28) - 5 y(32) - 10 y(39) + 54 x(4) + 3 y(17) - 15 x(5) + 115 x(6)
      + 118 x(7) + 24 x(8) - 63 x(9) - 7 y(4) - 14 x(10) - 73 x(11) + 171 x(12)
      + 146 x(13) - 37 x(14) + 162 x(15) + 156 x(16) + 131 x(17) + 39 x(18)
      - 32 x(19) - 150 x(20) - 126 x(21) + 42 x(22) + 36 x(23) + 139 x(24)
      + 118 x(25) - 7 x(26) + 181 x(27) + 33 x(28) - 46 x(29) + 6 x(30)
      + 109 x(31) + 171 x(32) - 4 x(33) - 93 x(34) - 48 x(35) + 182 x(36)
      + 150 x(37) + 198 x(38) - 67 x(39) = 0
Bounds
 0 <= x(0) <= 1
 0 <= x(1) <= 1
 0 <= x(2) <= 1
 0 <= x(3) <= 1
 0 <= x(4) <= 1
 0 <= x(5) <= 1
 0 <= x(6) <= 1
 0 <= x(7) <= 1
 0 <= x(8) <= 1
 0 <= x(9) <= 1
 0 <= x(10) <= 1
 0 <= x(11) <= 1
 0 <= x(12) <= 1
 0 <= x(13) <= 1
 0 <= x(14) <= 1
 0 <= x(15) <= 1
 0 <= x(16) <= 1
 0 <= x(17) <= 1
 0 <= x(18) <= 1
 0 <= x(19) <= 1
 0 <= x(20) <= 1
 0 <= x(21) <= 1
 0 <= x(22) <= 1
 0 <= x(23) <= 1
 0 <= x(24) <= 1
 0 <= x(25) <= 1
 0 <= x(26) <= 1
 0 <= x(27) <= 1
 0 <= x(28) <= 1
 0 <= x(29) <= 1
 0 <= x(30) <= 1
 0 <= x(31) <= 1
 0 <= x(32) <= 1
 0 <= x(33) <= 1
 0 <= x(34) <= 1
 0 <= x(35) <= 1
 0 <= x(36) <= 1
 0 <= x(37) <= 1
 0 <= x(38) <= 1
 0 <= x(39) <= 1
Binaries
 x(0)  x(1)  x(2)  x(3)  x(4)  x(5)  x(6)  x(7)  x(8)  x(9)  x(10)  x(11) 
 x(12)  x(13)  x(14)  x(15)  x(16)  x(17)  x(18)  x(19)  x(20)  x(21)  x(22) 
 x(23)  x(24)  x(25)  x(26)  x(27)  x(28)  x(29)  x(30)  x(31)  x(32)  x(33) 
 x(34)  x(35)  x(36)  x(37)  x(38)  x(39) 
End
